n = 15;
m = 50;

max_len = 6;
word_lens = [ 4, 4, 4, 4, 4, 4, 4, 4, 4, 4, 4, 4, 4, 4, 5, 5, 5, 5, 5, 5, 5, 5, 5, 5, 5, 5, 5, 5, 5, 5, 5, 5, 5, 6, 6, 6, 6, 6, 6, 6, 6, 6, 6, 6, 6, 6, 6, 6, 6, 6 ];
pivot_inds = [ 1, 1, 2, 1, 2, 2, 2, 2, 1, 2, 1, 1, 2, 1, 2, 2, 2, 2, 2, 2, 2, 2, 2, 2, 2, 2, 2, 2, 2, 2, 2, 2, 2, 2, 3, 2, 2, 3, 2, 3, 2, 2, 3, 3, 3, 3, 3, 3, 3, 2 ];
words = [| M, Y, T, H, Z, Z | L, I, F, E, Z, Z | B, O, O, K, Z, Z | P, A, G, E, Z, Z | N, E, W, S, Z, Z | T, A, L, E, Z, Z | P, L, O, T, Z, Z | E, P, I, C, Z, Z | S, A, G, A, Z, Z | L, O, F, T, Z, Z | H, O, U, R, Z, Z | M, A, T, H, Z, Z | Y, O, R, E, Z, Z | T, I, M, E, Z, Z | J, I, F, F, Y, Z | F, L, O, O, R, Z | M, O, V, I, E, Z | W, R, O, T, E, Z | S, K, I, L, L, Z | W, H, I, L, E, Z | D, R, A, M, A, Z | N, O, V, E, L, Z | S, L, E, E, P, Z | L, E, V, E, L, Z | S, C, O, O, P, Z | T, R, U, T, H, Z | P, I, E, C, E, Z | F, A, B, L, E, Z | A, T, T, I, C, Z | C, L, O, C, K, Z | T, H, I, N, G, Z | S, I, X, T, Y, Z | S, T, U, D, Y, Z | N, A, T, U, R, E | A, N, N, A, L, S | G, A, R, R, E, T | A, L, W, A, Y, S | L, E, G, E, N, D | M, I, N, U, T, E | H, O, R, A, R, Y | R, E, C, O, R, D | M, I, D, D, A, Y | M, O, M, E, N, T | S, T, O, R, E, Y | C, L, I, M, A, X | T, I, M, I, S, T | B, A, T, H, O, S | W, I, T, E, L, O | R, E, P, O, R, T | C, E, L, L, A, R |];

pos_var_strat = first_fail;
pos_val_strat = indomain_median;
